TCS_Benchmarks/redos_fix/regexlib2_output_distinct_2107_2106_16_0.txt
&
([@A-Za-z\/0-9_ !a$%&'(),m.opqtu:;=?]|[\-]|[	\f]){0,}